\ This file was automatically generated by Zimpl
\ var x1 >= 0;
\ var x2 >= 0;
\ var x3 >= 0;
\ var x4 >= 0;
\ var x5 >= 0;
\ var x6 >= 0;
\ minimize Z :      35*x1 + 30*x2 + 60*x3 + 50*x4 + 27*x5 + 22*x6;
\ subto c1:      1*x1 + 0*x2 + 2*x3 + 2*x4 + 1*x5 + 2*x6 >= 9;
\ subto c2:     0*x1 + 1*x2 + 3*x3 + 1*x4 + 3*x5 + 2*x6 >= 19;
\ subto c3:     160*x1 + 20*x2 + 500*x3 + 280*x4 + 300*x5 + 360*x6 == 2000;
\Problem name: pp
Minimize
 Z:  +35 x1 +30 x2 +60 x3 +50 x4 +27 x5 +22 x6
 
Subject to
 c1_1:
  +2 x6 + x5 +2 x4 +2 x3 + x1 >= 9
 c2_1:
  +2 x6 +3 x5 + x4 +3 x3 + x2 >= 19
 c3_1:
  +360 x6 +300 x5 +280 x4 +500 x3 +20 x2 +160 x1
  = 2000
Bounds
 0 <= x1 <= +inf
 0 <= x2 <= +inf
 0 <= x3 <= +inf
 0 <= x4 <= +inf
 0 <= x5 <= +inf
 0 <= x6 <= +inf
End
